131
100000
4764
21874
16443
12225
24621
13780
5470
17938
1113
5735
113
3924
21056
14144
3272
4488
228
13523
10939
11405
6529
8686
1625
7098
7420
17145
14673
343
24830
18814
15834
4473
8539
15258
6676
22928
14058
1049
10059
12424
17241
18900
5741
6064
7773
7932
22938
508
18958
5863
18851
297
13457
12284
9413
881
15897
23927
8321
5994
7604
18727
8060
5738
17317
13435
17188
14426
11446
12756
5488
11547
24201
6
11838
22001
10714
1486
15681
22278
7744
17435
13237
17396
23324
4286
8258
24115
495
13514
2492
16556
15650
17926
16300
1812
8718
1628
11108
21790
2350
12395
3030
11685
13694
12786
9292
3360
3167
14632
1306
17077
2100
206
23138
159
17212
16200
15777
18753
19805
6919
23517
11302
5389
8226
13209
20791
18452
7789
23805
